(Cost-function, node_ordering) that gave the best result for SCI = (6, 1)
SCI
Route #1: 4 45 48 30 68 75
Route #2: 67 34 46 52 27
Route #3: 12 39 9 32 40 17
Route #4: 51 16 63 23 56 41 42 43 1 33
Route #5: 29 5 37 20 70 60 71 69 36 47 21 74
Route #6: 58 10 38 65 66 11 53
Route #7: 26 72 31 55 25 50 18 24 49 3 44
Route #8: 2 28 61 64 22 62 73 6
Route #9: 15 57 13 54 59 14 19 8 35 7
Cost 792.585
VALID solution
Total execution time = 5.59665 s
